NAME : ClusterId_1044 
COMMENT : (Gillet and Johnson) 
TYPE : CVRP 
DIMENSION : 20 
EDGE_WEIGHT_TYPE : EUC_2D 
CAPACITY : 500 
NODE_COORD_SECTION 
1044 4100 3342 
843 3127 1575 
376 3201 1651 
259 3031 3939 
831 3522 2269 
609 3297 3350 
419 3315 3135 
534 3551 3860 
474 3477 3134 
349 3480 3549 
284 3696 2530 
146 3570 3205 
386 3973 2938 
725 4156 3732 
467 4266 3863 
107 4132 3193 
662 4332 3915 
131 4332 3486 
737 4549 2764 
938 4588 3048 
DEMAND_SECTION 
1044 1051
843 44
376 52
259 31
831 43
609 44
419 47
534 37
474 33
349 44
284 48
146 28
386 50
725 27
467 43
107 41
662 42
131 35
737 56
938 51
DEPOT_SECTION 
1044
 -1
EOF